1752923.0
1834341.0
1843333.0
1805040.0
1849208.0
1850818.0
1850726.0
1909406.0
1782121.0
1880825.0
1853921.0
1794208.0
1767378.0
1754008.0
1852801.0
1834937.0
1770353.0
1792504.0
1902487.0
1875083.0
1797541.0
1867539.0
1714791.0
1824046.0
1821656.0
1770602.0
1812446.0
1817958.0
1909305.0
1795767.0
